13
0 68 35 49 22 31 91 92 5 4 95 60 29 
68 0 56 1 22 85 85 99 97 61 3 10 4 
44 95 0 36 51 59 9 91 87 34 6 64 12 
29 50 51 0 62 13 35 97 51 82 9 40 10 
73 50 2 92 0 5 7 31 74 90 37 16 25 
51 75 89 41 35 0 20 28 56 13 53 55 48 
94 15 79 66 67 11 0 32 79 5 26 87 41 
88 54 67 59 83 22 17 0 57 50 5 35 58 
81 82 22 69 19 8 68 87 0 62 42 93 9 
95 33 78 52 14 60 89 96 89 0 12 38 32 
42 32 11 38 88 64 54 15 66 90 0 59 91 
14 3 1 7 51 21 83 46 81 8 16 0 61 
99 99 9 44 80 26 74 95 69 12 54 38 0 
